data/benchmarks/bayes/90-17-4-q.cnf
p cnf 1377 1207
c weights 0.546458 0.453542 1 1 1 1 1 1 1 1 1 1 1 1 1 1 1 1 1 1 1 1 1 1 1 1 1 1 1 1 1 1 1 1 1 1 1 1 1 1 1 1 1 1 1 1 1 1 1 1 1 1 1 1 1 1 1 1 1 1 1 1 1 1 1 1 1 1 1 1 1 1 1 1 1 1 1 1 1 1 1 1 1 1 1 1 1 1 1 1 1 1 1 1 1 1 1 1 1 1 1 1 1 1 1 1 1 1 1 1 1 1 1 1 1 1 1 1 1 1 1 1 1 1 1 1 1 1 1 1 1 1 1 1 1 1 1 1 1 1 1 1 1 1 1 1 1 1 1 1 1 1 1 1 1 1 1 1 1 1 1 1 1 1 1 1 1 1 1 1 1 1 1 1 1 1 1 1 1 1 1 1 1 1 1 1 1 1 1 1 1 1 1 1 1 1 1 1 1 1 1 1 1 1 1 1 1 1 1 1 1 1 1 1 1 1 1 1 1 1 1 1 1 1 1 1 1 1 1 1 1 1 1 1 1 1 1 1 1 1 1 1 1 1 1 1 1 1 1 1 1 1 1 1 1 1 1 1 1 1 1 1 1 1 1 1 1 1 1 1 1 1 1 1 1 1 1 1 1 1 1 1 1 1 1 1 1 1 1 1 1 1 1 1 1 1 1 1 1 1 1 1 1 1 1 1 1 1 1 1 1 1 1 1 1 1 1 1 1 1 1 1 1 1 1 1 1 1 1 1 1 1 1 1 1 1 1 1 1 1 1 1 1 1 1 1 1 1 1 1 1 1 1 1 1 1 1 1 1 1 1 1 1 1 1 1 1 1 1 1 1 1 1 1 1 1 1 1 1 1 1 1 1 1 1 1 1 1 1 1 1 1 1 1 1 1 1 1 1 1 1 1 1 1 1 1 1 1 1 1 1 1 1 1 1 1 1 1 1 1 1 1 1 1 1 1 1 1 1 1 1 1 1 1 1 1 1 1 1 1 1 1 1 1 1 1 1 1 1 1 1 1 1 1 1 1 1 1 1 1 1 1 1 1 1 1 1 1 1 1 1 1 1 1 1 1 1 1 1 1 1 1 1 1 1 1 1 1 1 1 1 1 1 1 1 1 1 1 1 1 1 1 1 1 1 1 1 1 1 1 1 1 1 1 1 1 1 1 1 1 1 1 1 1 1 1 1 1 1 1 1 1 1 1 1 1 1 1 1 1 1 1 1 1 1 1 1 1 1 1 1 1 1 1 1 1 1 1 1 1 1 1 1 1 1 1 1 1 1 1 1 1 1 1 1 1 1 1 0.5 0.5 0.5 0.5 0.5 0.5 0.5 0.5 0.5 0.5 0.5 0.5 0.5 0.5 0.5 0.5 0.5 0.5 0.5 0.5 0.0853107 0.9146893 0.255837 0.744163 0.5 0.5 0.5 0.5 0.5 0.5 0.5 0.5 0.5 0.5 0.5 0.5 0.5 0.5 0.5 0.5 0.5 0.5 0.5 0.5 0.5 0.5 0.5 0.5 0.5 0.5 0.5 0.5 0.5 0.5 0.5 0.5 0.5 0.5 0.5 0.5 0.5 0.5 0.5 0.5 0.281029 0.718971 0.857053 0.14294700000000005 0.5 0.5 0.5 0.5 0.5 0.5 0.5 0.5 0.5 0.5 0.5 0.5 0.5 0.5 0.5 0.5 0.5 0.5 0.5 0.5 0.5 0.5 0.5 0.5 0.5 0.5 0.5 0.5 0.5 0.5 0.5 0.5 0.5 0.5 0.5 0.5 0.5 0.5 0.5 0.5 0.5 0.5 0.5 0.5 0.5 0.5 0.5 0.5 0.5 0.5 0.5 0.5 0.5 0.5 0.5 0.5 0.5 0.5 0.5 0.5 0.5 0.5 0.5 0.5 0.5 0.5 0.5 0.5 0.5 0.5 0.5 0.5 0.5 0.5 0.5 0.5 0.5 0.5 0.5 0.5 0.5 0.5 0.5 0.5 0.5 0.5 0.5 0.5 0.5 0.5 0.5 0.5 0.5 0.5 0.5 0.5 0.5 0.5 0.5 0.5 0.5 0.5 0.5 0.5 0.319469 0.680531 0.673504 0.326496 0.630528 0.369472 0.676081 0.32391899999999996 0.5 0.5 0.5 0.5 0.5 0.5 0.5 0.5 0.5 0.5 0.5 0.5 0.5 0.5 0.5 0.5 0.5 0.5 0.5 0.5 0.5 0.5 0.5 0.5 0.5 0.5 0.5 0.5 0.5 0.5 0.5 0.5 0.5 0.5 0.5 0.5 0.5 0.5 0.5 0.5 0.5 0.5 0.5 0.5 0.5 0.5 0.5 0.5 0.5 0.5 0.5 0.5 0.808029 0.191971 0.29176 0.70824 0.604318 0.395682 0.0830616 0.9169384 0.5 0.5 0.5 0.5 0.5 0.5 0.5 0.5 0.5 0.5 0.5 0.5 0.5 0.5 0.5 0.5 0.5 0.5 0.5 0.5 0.5 0.5 0.5 0.5 0.5 0.5 0.5 0.5 0.5 0.5 0.5 0.5 0.5 0.5 0.5 0.5 0.5 0.5 0.5 0.5 0.5 0.5 0.5 0.5 0.5 0.5 0.5 0.5 0.5 0.5 0.5 0.5 0.5 0.5 0.5 0.5 0.5 0.5 0.5 0.5 0.5 0.5 0.5 0.5 0.5 0.5 0.5 0.5 0.5 0.5 0.5 0.5 0.5 0.5 0.5 0.5 0.5 0.5 0.5 0.5 0.5 0.5 0.5 0.5 0.5 0.5 0.5 0.5 0.5 0.5 0.5 0.5 0.5 0.5 0.5 0.5 0.5 0.5 0.5 0.5 0.185179 0.814821 0.23771 0.76229 0.542364 0.45763600000000004 0.516143 0.483857 0.925115 0.07488499999999998 0.708483 0.291517 0.111832 0.888168 0.0916522 0.9083478 0.5 0.5 0.5 0.5 0.5 0.5 0.5 0.5 0.5 0.5 0.5 0.5 0.5 0.5 0.5 0.5 0.848958 0.151042 0.198002 0.801998 0.618292 0.38170800000000005 0.421182 0.578818 0.5 0.5 0.5 0.5 0.5 0.5 0.5 0.5 0.5 0.5 0.5 0.5 0.5 0.5 0.5 0.5 0.203355 0.796645 0.182866 0.817134 0.623082 0.376918 0.315186 0.684814 0.5 0.5 0.5 0.5 0.5 0.5 0.5 0.5 0.444446 0.555554 0.510892 0.489108 0.279526 0.7204740000000001 0.145521 0.854479 0.5 0.5 0.5 0.5 0.5 0.5 0.5 0.5 0.5 0.5 0.5 0.5 0.5 0.5 0.5 0.5 0.5 0.5 0.5 0.5 0.5 0.5 0.5 0.5 0.5 0.5 0.5 0.5 0.5 0.5 0.5 0.5 0.5 0.5 0.5 0.5 0.5 0.5 0.5 0.5 0.5 0.5 0.5 0.5 0.5 0.5 0.5 0.5 0.5 0.5 0.5 0.5 0.5 0.5 0.5 0.5 0.5 0.5 0.5 0.5 0.277824 0.7221759999999999 0.305811 0.694189 0.188828 0.811172 0.347442 0.652558 0.643073 0.356927 0.674811 0.32518899999999995 0.585358 0.41464199999999996 0.300672 0.699328 0.5 0.5 0.5 0.5 0.5 0.5 0.5 0.5 0.5 0.5 0.5 0.5 0.5 0.5 0.5 0.5 0.5 0.5 0.5 0.5 0.5 0.5 0.5 0.5 0.5 0.5 0.5 0.5 0.5 0.5 0.5 0.5 0.643908 0.35609199999999996 0.899437 0.10056299999999996 0.135007 0.864993 0.99135 0.008650000000000047 0.5 0.5 0.5 0.5 0.5 0.5 0.5 0.5 0.5 0.5 0.5 0.5 0.5 0.5 0.5 0.5 0.5 0.5 0.5 0.5 0.5 0.5 0.5 0.5 0.5 0.5 0.5 0.5 0.5 0.5 0.5 0.5 0.5 0.5 0.5 0.5 0.5 0.5 0.5 0.5 0.5 0.5 0.5 0.5 0.5 0.5 0.5 0.5 0.5 0.5 0.5 0.5 0.5 0.5 0.5 0.5 0.5 0.5 0.5 0.5 0.5 0.5 0.5 0.5 0.5 0.5 0.5 0.5 0.5 0.5 0.5 0.5 0.5 0.5 0.5 0.5 0.5 0.5 0.5 0.5 0.5 0.5 0.5 0.5 0.5 0.5 0.5 0.5 0.5 0.5 0.5 0.5 0.5 0.5 0.5 0.5 0.5 0.5 0.5 0.5 0.5 0.5 0.5 0.5 0.5 0.5 0.5 0.5 0.5 0.5 0.5 0.5 0.5 0.5 0.5 0.5 0.657217 0.34278299999999995 0.579211 0.42078899999999997 0.0850521 0.9149479 0.0137122 0.9862878 0.5 0.5 0.5 0.5 0.5 0.5 0.5 0.5 0.5 0.5 0.5 0.5 0.5 0.5 0.5 0.5 0.5 0.5 0.5 0.5 0.5 0.5 0.5 0.5 0.5 0.5 0.5 0.5 0.5 0.5 0.5 0.5 0.571902 0.428098 0.578412 0.42158799999999996 0.454723 0.545277 0.811025 0.188975 0.5 0.5 0.5 0.5 0.5 0.5 0.5 0.5 0.5 0.5 0.5 0.5 0.5 0.5 0.5 0.5 0.5 0.5 0.5 0.5 0.5 0.5 0.5 0.5 0.5 0.5 0.5 0.5 0.5 0.5 0.5 0.5 0.5 0.5 0.5 0.5 0.5 0.5 0.5 0.5 0.5 0.5 0.5 0.5 0.593588 0.406412 0.0314672 0.9685328 0.529664 0.470336 0.705528 0.29447199999999996 0.5 0.5 0.5 0.5 0.5 0.5 0.5 0.5 0.5 0.5 0.5 0.5 0.5 0.5 0.5 0.5 0.5 0.5 0.5 0.5 0.5 0.5 0.5 0.5 0.5 0.5 0.5 0.5 0.5 0.5 0.5 0.5 0.5 0.5 0.5 0.5 0.5 0.5 0.5 0.5 0.5 0.5 0.5 0.5 0.5 0.5 0.5 0.5 0.5 0.5 0.5 0.5 0.5 0.5 0.5 0.5 0.5 0.5 0.5 0.5 0.5 0.5 0.5 0.5 0.5 0.5 0.5 0.5 0.5 0.5 0.5 0.5 0.5 0.5 0.5 0.5 0.5 0.5 0.5 0.5 0.831966 0.16803400000000002 0.453328 0.546672 0.694979 0.305021 0.143309 0.856691 0.5 0.5 0.5 0.5 0.5 0.5 0.5 0.5 0.5 0.5 0.5 0.5 0.5 0.5 0.5 0.5 0.5 0.5 0.5 0.5 0.5 0.5 0.5 0.5 0.5 0.5 0.5 0.5 0.5 0.5 0.5 0.5 0.5 0.5 0.5 0.5 0.5 0.5 0.5 0.5 0.5 0.5 0.5 0.5 0.5 0.5 0.5 0.5 0.5 0.5 0.5 0.5 0.5 0.5 0.5 0.5 0.5 0.5 0.5 0.5 0.238228 0.761772 0.119676 0.880324 0.392522 0.607478 0.846026 0.15397400000000006 0.5 0.5 0.5 0.5 0.5 0.5 0.5 0.5 0.5 0.5 0.5 0.5 0.5 0.5 0.5 0.5 0.5 0.5 0.5 0.5 0.5 0.5 0.5 0.5 0.5 0.5 0.5 0.5 0.5 0.5 0.5 0.5 0.5 0.5 0.5 0.5 0.5 0.5 0.5 0.5 0.5 0.5 0.5 0.5 0.5 0.5 0.5 0.5 0.148401 0.851599 0.564736 0.435264 0.518913 0.48108700000000004 0.859433 0.140567 0.5 0.5 0.5 0.5 0.5 0.5 0.5 0.5 0.5 0.5 0.5 0.5 0.5 0.5 0.5 0.5 0.5 0.5 0.5 0.5 0.5 0.5 0.5 0.5 0.5 0.5 0.5 0.5 0.5 0.5 0.5 0.5 0.5 0.5 0.5 0.5 0.450375 0.549625 0.275806 0.724194 0.873418 0.12658199999999997 0.598775 0.40122500000000005 0.5 0.5 0.5 0.5 0.5 0.5 0.5 0.5 0.5 0.5 0.5 0.5 0.5 0.5 0.5 0.5 0.5 0.5 0.5 0.5 0.5 0.5 0.5 0.5 0.5 0.5 0.5 0.5 0.5 0.5 0.5 0.5 0.5 0.5 0.5 0.5 0.5 0.5 0.5 0.5 0.5 0.5 0.5 0.5 0.5 0.5 0.5 0.5 0.703865 0.29613500000000004 0.400419 0.5995809999999999 0.442672 0.557328 0.826126 0.17387399999999997 0.5 0.5 0.5 0.5 0.5 0.5 0.5 0.5 0.5 0.5 0.5 0.5 0.5 0.5 0.5 0.5 0.5 0.5 0.5 0.5 0.5 0.5 0.5 0.5 0.5 0.5 0.5 0.5 0.5 0.5 0.5 0.5 0.5 0.5 0.5 0.5 0.5 0.5 0.5 0.5 0.5 0.5 0.5 0.5 0.5 0.5 0.5 0.5 0.5 0.5 0.5 0.5 0.5 0.5 0.5 0.5 0.5 0.5 0.5 0.5 0.5 0.5 0.5 0.5 0.5 0.5 0.5 0.5 0.397026 0.602974 0.286125 0.713875 0.679753 0.32024699999999995 0.00228263 0.99771737 0.5 0.5 0.5 0.5 0.5 0.5 0.5 0.5 0.5 0.5 0.5 0.5 0.5 0.5 0.5 0.5 0.5 0.5 0.5 0.5 0.5 0.5 0.5 0.5 0.5 0.5 0.5 0.5 0.5 0.5 0.5 0.5 0.333606 0.6663939999999999 0.175308 0.824692 0.158706 0.841294 0.18999 0.81001 0.5 0.5 0.5 0.5 0.5 0.5 0.5 0.5 0.5 0.5 0.5 0.5 0.5 0.5 0.5 0.5 0.5 0.5 0.5 0.5 0.5 0.5 0.5 0.5 0.5 0.5 0.5 0.5 0.5 0.5 0.5 0.5 0.5 0.5 0.5 0.5 0.5 0.5 0.5 0.5 0.5 0.5 0.5 0.5 0.5 0.5 0.5 0.5 0.5 0.5 0.5 0.5 0.5 0.5 0.5 0.5 0.5 0.5 0.5 0.5 0.5 0.5 0.5 0.5 0.5 0.5 0.5 0.5 0.5 0.5 0.5 0.5 0.5 0.5 0.5 0.5 0.5 0.5 0.5 0.5 0.5 0.5 0.5 0.5 0.5 0.5 0.5 0.5 0.5 0.5 0.5 0.5 0.5 0.5 0.5 0.5 0.5 0.5 0.5 0.5 0.5 0.5 0.5 0.5 0.5 0.5 0.5 0.5 0.5 0.5 0.5 0.5 0.5 0.5 0.5 0.5 0.5 0.5 0.5 0.5 0.5 0.5 0.5 0.5 0.5 0.5 0.5 0.5 0.5 0.5 0.5 0.5 0.5 0.5 0.5 0.5 0.5 0.5 0.5 0.5 0.5 0.5 0.5 0.5 0.5 0.5 0.5 0.5 0.5 0.5 0.5 0.5 0.5 0.5 0.5 0.5 0.852683 0.14731700000000003 0.11044 0.88956 0.799168 0.200832 0.750498 0.249502 0.5 0.5 0.5 0.5 0.5 0.5 0.5 0.5 0.5 0.5 0.5 0.5 0.5 0.5 0.5 0.5 0.5 0.5 0.5 0.5 0.5 0.5 0.5 0.5 0.5 0.5 0.5 0.5 0.5 0.5 0.5 0.5 0.5 0.5 0.5 0.5 0.5 0.5 0.5 0.5 0.5 0.5 0.5 0.5 0.5 0.5 0.5 0.5 0.5 0.5 0.5 0.5 0.5 0.5 0.5 0.5 0.5 0.5 0.5 0.5 0.5 0.5 0.5 0.5 0.5 0.5 0.5 0.5 0.5 0.5 0.5 0.5 0.5 0.5 0.5 0.5 0.5 0.5 0.5 0.5 0.5 0.5 0.5 0.5 0.5 0.5 0.5 0.5 0.5 0.5 0.5 0.5 0.5 0.5 0.5 0.5 0.5 0.5 0.5 0.5 0.5 0.5 0.5 0.5 0.5 0.5 0.5 0.5 0.5 0.5 0.5 0.5 0.5 0.5 0.5 0.5 0.5 0.5 0.5 0.5 0.5 0.5 0.5 0.5 0.5 0.5 0.5 0.5 0.5 0.5 0.5 0.5 0.5 0.5 0.5 0.5 0.5 0.5 0.5 0.5 0.5 0.5 0.5 0.5 0.5 0.5 0.5 0.5 0.5 0.5 0.5 0.5 0.5 0.5 0.5 0.5 0.5 0.5 0.5 0.5 0.5 0.5 0.5 0.5 0.5 0.5 0.5 0.5 0.5 0.5 0.5 0.5 0.5 0.5 0.5 0.5 0.0179359 0.9820641 0.573997 0.426003 0.424634 0.575366 0.574082 0.425918 0.5 0.5 0.5 0.5 0.5 0.5 0.5 0.5 0.5 0.5 0.5 0.5 0.5 0.5 0.5 0.5 0.5 0.5 0.5 0.5 0.5 0.5 0.5 0.5 0.5 0.5 0.5 0.5 0.5 0.5 0.5 0.5 0.5 0.5 0.5 0.5 0.5 0.5 0.5 0.5 0.5 0.5 0.5 0.5 0.5 0.5 0.5 0.5 0.5 0.5 0.5 0.5 0.5 0.5 0.5 0.5 0.5 0.5 0.5 0.5 0.5 0.5 0.5 0.5 0.5 0.5 0.5 0.5 0.5 0.5 0.5 0.5 0.5 0.5 0.5 0.5 0.5 0.5 0.5 0.5 0.5 0.5 0.5 0.5 0.5 0.5 0.5 0.5 0.5 0.5 0.5 0.5 0.5 0.5 0.5 0.5 0.5 0.5 0.5 0.5 0.5 0.5 0.5 0.5 0.5 0.5 0.5 0.5 0.5 0.5 0.5 0.5 0.5 0.5 0.5 0.5 0.5 0.5 0.5 0.5 0.5 0.5 0.5 0.5 0.5 0.5 0.5 0.5 0.5 0.5 0.5 0.5 0.5 0.5 0.5 0.5 0.5 0.5 0.5 0.5 0.5 0.5 0.5 0.5 0.5 0.5 0.5 0.5 0.5 0.5 0.5 0.5 0.5 0.5 0.5 0.5 0.5 0.5 0.5 0.5 0.5 0.5 0.5 0.5 0.622696 0.377304 0.263195 0.7368049999999999 0.985985 0.014015 0.335178 0.664822 0.5 0.5 0.5 0.5 0.5 0.5 0.5 0.5 0.5 0.5 0.5 0.5 0.5 0.5 0.5 0.5 0.5 0.5 0.5 0.5 0.5 0.5 0.5 0.5 0.5 0.5 0.5 0.5 0.5 0.5 0.5 0.5 0.5 0.5 0.5 0.5 0.5 0.5 0.5 0.5 0.5 0.5 0.5 0.5 0.5 0.5 0.5 0.5 0.5 0.5 0.5 0.5 0.5 0.5 0.5 0.5 0.5 0.5 0.5 0.5 0.5 0.5 0.5 0.5 0.5 0.5 0.5 0.5 0.5 0.5 0.5 0.5 0.5 0.5 0.5 0.5 0.5 0.5 0.5 0.5 0.5 0.5 0.5 0.5 0.5 0.5 0.5 0.5 0.5 0.5 0.5 0.5 0.5 0.5 0.5 0.5 0.5 0.5 0.5 0.5 0.5 0.5 0.5 0.5 0.5 0.5 0.5 0.5 0.5 0.5 0.5 0.5 0.5 0.5 0.5 0.5 0.5 0.5 0.5 0.5 0.5 0.5 0.5 0.5 0.5 0.5 0.5 0.5 0.5 0.5 0.5 0.5 0.5 0.5 0.5 0.5 0.5 0.5 0.5 0.5 0.5 0.5 0.5 0.5 0.5 0.5 0.5 0.5 0.5 0.5 0.5 0.5 0.5 0.5 0.5 0.5 0.5 0.5 0.5 0.5 0.5 0.5 0.5 0.5 0.5 0.5 0.5 0.5 0.5 0.5 0.5 0.5 0.5 0.5 0.5 0.5 0.5 0.5 0.5 0.5 0.5 0.5 0.5 0.5 0.5 0.5 0.5 0.5 0.5 0.5 0.5 0.5 0.5 0.5 0.5 0.5 0.5 0.5 0.5 0.5 0.5 0.5 0.5 0.5 0.5 0.5 0.5 0.5 0.5 0.5 0.5 0.5 0.112469 0.887531 0.103484 0.896516 0.5 0.5 0.5 0.5 0.5 0.5 0.5 0.5 0.5 0.5 0.5 0.5 0.5 0.5 0.5 0.5 0.5 0.5 0.5 0.5 0.5 0.5 0.5 0.5 0.5 0.5 0.5 0.5 0.5 0.5 0.5 0.5 0.5 0.5 0.5 0.5 0.5 0.5 0.5 0.5 0.5 0.5 0.5 0.5 0.5 0.5 0.5 0.5 0.413784 0.5862160000000001 0.106506 0.893494 0.254131 0.745869 0.767966 0.23203399999999996 0.5 0.5 0.5 0.5 0.5 0.5 0.5 0.5 0.5 0.5 0.5 0.5 0.5 0.5 0.5 0.5 0.387031 0.612969 0.78957 0.21043 0.370547 0.629453 7.04732e-06 0.99999295268 0.5 0.5 0.5 0.5 0.5 0.5 0.5 0.5 0.5 0.5 0.5 0.5 0.5 0.5 0.5 0.5 0.0224436 0.9775564 0.0504232 0.9495768 0.0152048 0.9847952 0.276575 0.723425 0.5 0.5 0.5 0.5 0.5 0.5 0.5 0.5 0.5 0.5 0.5 0.5 0.5 0.5 0.5 0.5 0.5 0.5 0.5 0.5 0.5 0.5 0.5 0.5 0.5 0.5 0.5 0.5 0.5 0.5 0.5 0.5 0.5 0.5 0.5 0.5 0.5 0.5 0.5 0.5 0.5 0.5 0.5 0.5 0.5 0.5 0.5 0.5 0.5 0.5 0.5 0.5 0.5 0.5 0.5 0.5 0.5 0.5 0.5 0.5 0.5 0.5 0.5 0.5 0.5 0.5 0.5 0.5 0.5 0.5 0.5 0.5 0.5 0.5 0.5 0.5 0.5 0.5 0.5 0.5 0.5 0.5 0.5 0.5 0.5 0.5 0.5 0.5 0.5 0.5 0.5 0.5 0.0557743 0.9442257000000001 0.209103 0.790897 0.0934061 0.9065939 0.7892 0.2108 0.5 0.5 0.5 0.5 0.5 0.5 0.5 0.5 0.5 0.5 0.5 0.5 0.5 0.5 0.5 0.5 0.5 0.5 0.5 0.5 0.5 0.5 0.5 0.5 0.237045 0.762955 0.0058214 0.9941786 0.681358 0.318642 0.638421 0.361579 0.5 0.5 0.5 0.5 0.5 0.5 0.5 0.5 0.5 0.5 0.5 0.5 0.5 0.5 0.5 0.5 0.5 0.5 0.5 0.5 0.5 0.5 0.5 0.5
-1 -2 0
1 2 0
-2 -3 0
2 3 0
-3 4 0
3 -4 0
-4 -5 0
4 5 0
-5 6 0
5 -6 0
-6 -300 7 0
-6 300 -7 0
6 -301 7 0
6 301 -7 0
-7 8 0
7 -8 0
-8 9 0
8 -9 0
-9 -10 0
9 10 0
-10 -11 0
10 11 0
-11 -12 0
11 12 0
-12 13 0
12 -13 0
-13 -14 0
13 14 0
-14 15 0
14 -15 0
-15 16 0
15 -16 0
-16 -17 0
16 17 0
-1 -322 18 0
-1 322 -18 0
1 -323 18 0
1 323 -18 0
-18 -2 19 0
-18 2 19 0
18 -2 -19 0
18 2 -19 0
-19 -3 -20 0
-19 3 20 0
19 -3 -20 0
19 3 20 0
-20 -4 21 0
-20 4 -21 0
20 -4 21 0
20 4 21 0
-21 -5 22 0
-21 5 -22 0
21 -5 -22 0
21 5 -22 0
-22 -6 23 0
-22 6 23 0
22 -6 23 0
22 6 -23 0
-23 -7 -24 0
-23 7 24 0
23 -7 24 0
23 7 24 0
-24 -8 25 0
-24 8 -25 0
24 -8 -25 0
24 8 25 0
-25 -9 -26 0
-25 9 -26 0
25 -9 26 0
25 9 -26 0
-26 -10 -27 0
-26 10 27 0
26 -10 27 0
26 10 -27 0
-27 -11 28 0
-27 11 28 0
27 -11 -28 0
27 11 28 0
-28 -12 29 0
-28 12 -29 0
28 -12 29 0
28 12 29 0
-29 -13 30 0
-29 13 -30 0
29 -13 -30 0
29 13 -30 0
-30 -14 31 0
-30 14 -31 0
30 -14 31 0
30 14 31 0
-31 -15 -376 32 0
-31 -15 376 -32 0
-31 15 -377 32 0
-31 15 377 -32 0
31 -15 -378 32 0
31 -15 378 -32 0
31 15 -379 32 0
31 15 379 -32 0
-32 -16 33 0
-32 16 -33 0
32 -16 33 0
32 16 -33 0
-33 -17 -34 0
-33 17 34 0
33 -17 34 0
33 17 34 0
-18 -35 0
18 35 0
-35 -19 36 0
-35 19 36 0
35 -19 36 0
35 19 -36 0
-36 -20 -37 0
-36 20 37 0
36 -20 -37 0
36 20 37 0
-37 -21 -38 0
-37 21 -38 0
37 -21 38 0
37 21 -38 0
-38 -22 39 0
-38 22 -39 0
38 -22 39 0
38 22 39 0
-39 -23 -406 40 0
-39 -23 406 -40 0
-39 23 -407 40 0
-39 23 407 -40 0
39 -23 -408 40 0
39 -23 408 -40 0
39 23 -409 40 0
39 23 409 -40 0
-40 -24 -41 0
-40 24 -41 0
40 -24 41 0
40 24 41 0
-41 -25 -42 0
-41 25 -42 0
41 -25 42 0
41 25 42 0
-42 -26 43 0
-42 26 43 0
42 -26 -43 0
42 26 43 0
-43 -27 44 0
-43 27 -44 0
43 -27 44 0
43 27 44 0
-44 -28 -45 0
-44 28 45 0
44 -28 45 0
44 28 45 0
-45 -29 46 0
-45 29 46 0
45 -29 -46 0
45 29 46 0
-46 -30 -47 0
-46 30 47 0
46 -30 47 0
46 30 47 0
-47 -31 48 0
-47 31 -48 0
47 -31 48 0
47 31 48 0
-48 -32 -49 0
-48 32 -49 0
48 -32 49 0
48 32 -49 0
-49 -33 -50 0
-49 33 50 0
49 -33 50 0
49 33 50 0
-50 -34 -51 0
-50 34 -51 0
50 -34 -51 0
50 34 51 0
-35 -52 0
35 52 0
-52 -36 53 0
-52 36 -53 0
52 -36 -53 0
52 36 -53 0
-53 -37 -460 54 0
-53 -37 460 -54 0
-53 37 -461 54 0
-53 37 461 -54 0
53 -37 -462 54 0
53 -37 462 -54 0
53 37 -463 54 0
53 37 463 -54 0
-54 -38 -464 55 0
-54 -38 464 -55 0
-54 38 -465 55 0
-54 38 465 -55 0
54 -38 -466 55 0
54 -38 466 -55 0
54 38 -467 55 0
54 38 467 -55 0
-55 -39 56 0
-55 39 56 0
55 -39 -56 0
55 39 -56 0
-56 -40 57 0
-56 40 57 0
56 -40 -57 0
56 40 -57 0
-57 -41 -476 58 0
-57 -41 476 -58 0
-57 41 -477 58 0
-57 41 477 -58 0
57 -41 -478 58 0
57 -41 478 -58 0
57 41 -479 58 0
57 41 479 -58 0
-58 -42 59 0
-58 42 -59 0
58 -42 -59 0
58 42 -59 0
-59 -43 -60 0
-59 43 -60 0
59 -43 -60 0
59 43 60 0
-60 -44 -488 61 0
-60 -44 488 -61 0
-60 44 -489 61 0
-60 44 489 -61 0
60 -44 -490 61 0
60 -44 490 -61 0
60 44 -491 61 0
60 44 491 -61 0
-61 -45 62 0
-61 45 -62 0
61 -45 62 0
61 45 62 0
-62 -46 -496 63 0
-62 -46 496 -63 0
-62 46 -497 63 0
-62 46 497 -63 0
62 -46 -498 63 0
62 -46 498 -63 0
62 46 -499 63 0
62 46 499 -63 0
-63 -47 64 0
-63 47 -64 0
63 -47 64 0
63 47 64 0
-64 -48 65 0
-64 48 -65 0
64 -48 65 0
64 48 65 0
-65 -49 66 0
-65 49 66 0
65 -49 -66 0
65 49 66 0
-66 -50 -67 0
-66 50 67 0
66 -50 -67 0
66 50 -67 0
-67 -51 68 0
-67 51 -68 0
67 -51 68 0
67 51 68 0
-52 -69 0
52 69 0
-69 -53 -70 0
-69 53 70 0
69 -53 -70 0
69 53 70 0
-70 -54 -71 0
-70 54 -71 0
70 -54 -71 0
70 54 71 0
-71 -55 -530 72 0
-71 -55 530 -72 0
-71 55 -531 72 0
-71 55 531 -72 0
71 -55 -532 72 0
71 -55 532 -72 0
71 55 -533 72 0
71 55 533 -72 0
-72 -56 -534 73 0
-72 -56 534 -73 0
-72 56 -535 73 0
-72 56 535 -73 0
72 -56 -536 73 0
72 -56 536 -73 0
72 56 -537 73 0
72 56 537 -73 0
-73 -57 -74 0
-73 57 74 0
73 -57 74 0
73 57 74 0
-74 -58 -75 0
-74 58 -75 0
74 -58 75 0
74 58 -75 0
-75 -59 -76 0
-75 59 76 0
75 -59 -76 0
75 59 76 0
-76 -60 -77 0
-76 60 77 0
76 -60 77 0
76 60 77 0
-77 -61 -554 78 0
-77 -61 554 -78 0
-77 61 -555 78 0
-77 61 555 -78 0
77 -61 -556 78 0
77 -61 556 -78 0
77 61 -557 78 0
77 61 557 -78 0
-78 -62 -79 0
-78 62 79 0
78 -62 -79 0
78 62 -79 0
-79 -63 -80 0
-79 63 80 0
79 -63 80 0
79 63 80 0
-80 -64 81 0
-80 64 -81 0
80 -64 -81 0
80 64 81 0
-81 -65 -82 0
-81 65 82 0
81 -65 -82 0
81 65 82 0
-82 -66 83 0
-82 66 83 0
82 -66 -83 0
82 66 -83 0
-83 -67 -84 0
-83 67 -84 0
83 -67 -84 0
83 67 84 0
-84 -68 85 0
-84 68 85 0
84 -68 -85 0
84 68 85 0
-69 -86 0
69 86 0
-86 -70 87 0
-86 70 87 0
86 -70 -87 0
86 70 87 0
-87 -71 -88 0
-87 71 -88 0
87 -71 -88 0
87 71 88 0
-88 -72 89 0
-88 72 89 0
88 -72 89 0
88 72 -89 0
-89 -73 90 0
-89 73 -90 0
89 -73 -90 0
89 73 -90 0
-90 -74 -91 0
-90 74 -91 0
90 -74 91 0
90 74 91 0
-91 -75 -92 0
-91 75 -92 0
91 -75 92 0
91 75 -92 0
-92 -76 93 0
-92 76 93 0
92 -76 -93 0
92 76 -93 0
-93 -77 -616 94 0
-93 -77 616 -94 0
-93 77 -617 94 0
-93 77 617 -94 0
93 -77 -618 94 0
93 -77 618 -94 0
93 77 -619 94 0
93 77 619 -94 0
-94 -78 95 0
-94 78 -95 0
94 -78 -95 0
94 78 95 0
-95 -79 96 0
-95 79 -96 0
95 -79 96 0
95 79 96 0
-96 -80 -97 0
-96 80 -97 0
96 -80 97 0
96 80 97 0
-97 -81 98 0
-97 81 -98 0
97 -81 -98 0
97 81 98 0
-98 -82 -636 99 0
-98 -82 636 -99 0
-98 82 -637 99 0
-98 82 637 -99 0
98 -82 -638 99 0
98 -82 638 -99 0
98 82 -639 99 0
98 82 639 -99 0
-99 -83 -100 0
-99 83 -100 0
99 -83 100 0
99 83 100 0
-100 -84 -101 0
-100 84 -101 0
100 -84 -101 0
100 84 101 0
-101 -85 102 0
-101 85 -102 0
101 -85 102 0
101 85 102 0
-86 103 0
86 -103 0
-103 -87 104 0
-103 87 -104 0
103 -87 -104 0
103 87 104 0
-104 -88 -105 0
-104 88 -105 0
104 -88 -105 0
104 88 105 0
-105 -89 -662 106 0
-105 -89 662 -106 0
-105 89 -663 106 0
-105 89 663 -106 0
105 -89 -664 106 0
105 -89 664 -106 0
105 89 -665 106 0
105 89 665 -106 0
-106 -90 -107 0
-106 90 107 0
106 -90 107 0
106 90 -107 0
-107 -91 108 0
-107 91 -108 0
107 -91 108 0
107 91 108 0
-108 -92 -109 0
-108 92 -109 0
108 -92 -109 0
108 92 109 0
-109 -93 -110 0
-109 93 110 0
109 -93 110 0
109 93 110 0
-110 -94 111 0
-110 94 111 0
110 -94 -111 0
110 94 -111 0
-111 -95 112 0
-111 95 -112 0
111 -95 -112 0
111 95 112 0
-112 -96 113 0
-112 96 -113 0
112 -96 113 0
112 96 113 0
-113 -97 114 0
-113 97 114 0
113 -97 -114 0
113 97 -114 0
-114 -98 115 0
-114 98 -115 0
114 -98 115 0
114 98 115 0
-115 -99 -116 0
-115 99 116 0
115 -99 -116 0
115 99 116 0
-116 -100 -706 117 0
-116 -100 706 -117 0
-116 100 -707 117 0
-116 100 707 -117 0
116 -100 -708 117 0
116 -100 708 -117 0
116 100 -709 117 0
116 100 709 -117 0
-117 -101 -118 0
-117 101 -118 0
117 -101 118 0
117 101 118 0
-118 -102 119 0
-118 102 -119 0
118 -102 119 0
118 102 -119 0
-103 -120 0
103 120 0
-120 -104 -121 0
-120 104 -121 0
120 -104 121 0
120 104 121 0
-121 -105 122 0
-121 105 -122 0
121 -105 122 0
121 105 -122 0
-122 -106 123 0
-122 106 123 0
122 -106 -123 0
122 106 123 0
-123 -107 -124 0
-123 107 124 0
123 -107 -124 0
123 107 124 0
-124 -108 -125 0
-124 108 -125 0
124 -108 -125 0
124 108 125 0
-125 -109 -740 126 0
-125 -109 740 -126 0
-125 109 -741 126 0
-125 109 741 -126 0
125 -109 -742 126 0
125 -109 742 -126 0
125 109 -743 126 0
125 109 743 -126 0
-126 -110 127 0
-126 110 -127 0
126 -110 -127 0
126 110 127 0
-127 -111 -128 0
-127 111 -128 0
127 -111 128 0
127 111 -128 0
-128 -112 -129 0
-128 112 129 0
128 -112 -129 0
128 112 -129 0
-129 -113 130 0
-129 113 -130 0
129 -113 130 0
129 113 130 0
-130 -114 131 0
-130 114 131 0
130 -114 -131 0
130 114 131 0
-131 -115 132 0
-131 115 -132 0
131 -115 -132 0
131 115 -132 0
-132 -116 -768 133 0
-132 -116 768 -133 0
-132 116 -769 133 0
-132 116 769 -133 0
132 -116 -770 133 0
132 -116 770 -133 0
132 116 -771 133 0
132 116 771 -133 0
-133 -117 134 0
-133 117 134 0
133 -117 -134 0
133 117 134 0
-134 -118 -135 0
-134 118 -135 0
134 -118 135 0
134 118 135 0
-135 -119 -136 0
-135 119 -136 0
135 -119 136 0
135 119 -136 0
-120 -137 0
120 137 0
-137 -121 138 0
-137 121 138 0
137 -121 -138 0
137 121 138 0
-138 -122 -790 139 0
-138 -122 790 -139 0
-138 122 -791 139 0
-138 122 791 -139 0
138 -122 -792 139 0
138 -122 792 -139 0
138 122 -793 139 0
138 122 793 -139 0
-139 -123 140 0
-139 123 -140 0
139 -123 140 0
139 123 -140 0
-140 -124 141 0
-140 124 -141 0
140 -124 141 0
140 124 -141 0
-141 -125 142 0
-141 125 -142 0
141 -125 142 0
141 125 142 0
-142 -126 -143 0
-142 126 -143 0
142 -126 -143 0
142 126 143 0
-143 -127 -144 0
-143 127 -144 0
143 -127 144 0
143 127 144 0
-144 -128 145 0
-144 128 145 0
144 -128 -145 0
144 128 145 0
-145 -129 -818 146 0
-145 -129 818 -146 0
-145 129 -819 146 0
-145 129 819 -146 0
145 -129 -820 146 0
145 -129 820 -146 0
145 129 -821 146 0
145 129 821 -146 0
-146 -130 147 0
-146 130 -147 0
146 -130 -147 0
146 130 147 0
-147 -131 148 0
-147 131 -148 0
147 -131 148 0
147 131 -148 0
-148 -132 149 0
-148 132 -149 0
148 -132 149 0
148 132 149 0
-149 -133 -150 0
-149 133 150 0
149 -133 -150 0
149 133 150 0
-150 -134 -151 0
-150 134 -151 0
150 -134 -151 0
150 134 151 0
-151 -135 -152 0
-151 135 152 0
151 -135 152 0
151 135 -152 0
-152 -136 153 0
-152 136 -153 0
152 -136 -153 0
152 136 -153 0
-137 154 0
137 -154 0
-154 -138 -155 0
-154 138 -155 0
154 -138 -155 0
154 138 155 0
-155 -139 -856 156 0
-155 -139 856 -156 0
-155 139 -857 156 0
-155 139 857 -156 0
155 -139 -858 156 0
155 -139 858 -156 0
155 139 -859 156 0
155 139 859 -156 0
-156 -140 157 0
-156 140 157 0
156 -140 -157 0
156 140 157 0
-157 -141 -158 0
-157 141 158 0
157 -141 158 0
157 141 -158 0
-158 -142 -159 0
-158 142 159 0
158 -142 -159 0
158 142 -159 0
-159 -143 -160 0
-159 143 160 0
159 -143 -160 0
159 143 -160 0
-160 -144 -876 161 0
-160 -144 876 -161 0
-160 144 -877 161 0
-160 144 877 -161 0
160 -144 -878 161 0
160 -144 878 -161 0
160 144 -879 161 0
160 144 879 -161 0
-161 -145 162 0
-161 145 -162 0
161 -145 -162 0
161 145 162 0
-162 -146 -163 0
-162 146 -163 0
162 -146 163 0
162 146 163 0
-163 -147 -164 0
-163 147 164 0
163 -147 164 0
163 147 164 0
-164 -148 165 0
-164 148 -165 0
164 -148 165 0
164 148 165 0
-165 -149 166 0
-165 149 166 0
165 -149 166 0
165 149 -166 0
-166 -150 -167 0
-166 150 167 0
166 -150 -167 0
166 150 -167 0
-167 -151 -168 0
-167 151 168 0
167 -151 -168 0
167 151 -168 0
-168 -152 -169 0
-168 152 169 0
168 -152 169 0
168 152 169 0
-169 -153 170 0
-169 153 -170 0
169 -153 170 0
169 153 -170 0
-154 171 0
154 -171 0
-171 -155 172 0
-171 155 -172 0
171 -155 -172 0
171 155 -172 0
-172 -156 173 0
-172 156 173 0
172 -156 173 0
172 156 -173 0
-173 -157 174 0
-173 157 -174 0
173 -157 -174 0
173 157 174 0
-174 -158 175 0
-174 158 175 0
174 -158 -175 0
174 158 175 0
-175 -159 -176 0
-175 159 176 0
175 -159 -176 0
175 159 176 0
-176 -160 -177 0
-176 160 177 0
176 -160 -177 0
176 160 177 0
-177 -161 -178 0
-177 161 178 0
177 -161 -178 0
177 161 -178 0
-178 -162 179 0
-178 162 179 0
178 -162 -179 0
178 162 -179 0
-179 -163 -180 0
-179 163 180 0
179 -163 180 0
179 163 180 0
-180 -164 -181 0
-180 164 -181 0
180 -164 -181 0
180 164 181 0
-181 -165 -958 182 0
-181 -165 958 -182 0
-181 165 -959 182 0
-181 165 959 -182 0
181 -165 -960 182 0
181 -165 960 -182 0
181 165 -961 182 0
181 165 961 -182 0
-182 -166 183 0
-182 166 183 0
182 -166 183 0
182 166 -183 0
-183 -167 184 0
-183 167 -184 0
183 -167 184 0
183 167 184 0
-184 -168 185 0
-184 168 -185 0
184 -168 185 0
184 168 185 0
-185 -169 -186 0
-185 169 -186 0
185 -169 -186 0
185 169 186 0
-186 -170 187 0
-186 170 -187 0
186 -170 187 0
186 170 187 0
-171 -188 0
171 188 0
-188 -172 -189 0
-188 172 189 0
188 -172 -189 0
188 172 -189 0
-189 -173 190 0
-189 173 190 0
189 -173 -190 0
189 173 190 0
-190 -174 -191 0
-190 174 -191 0
190 -174 191 0
190 174 -191 0
-191 -175 192 0
-191 175 -192 0
191 -175 192 0
191 175 -192 0
-192 -176 193 0
-192 176 193 0
192 -176 -193 0
192 176 -193 0
-193 -177 -194 0
-193 177 194 0
193 -177 194 0
193 177 194 0
-194 -178 -195 0
-194 178 195 0
194 -178 195 0
194 178 195 0
-195 -179 196 0
-195 179 -196 0
195 -179 -196 0
195 179 -196 0
-196 -180 -197 0
-196 180 -197 0
196 -180 -197 0
196 180 197 0
-197 -181 -198 0
-197 181 -198 0
197 -181 198 0
197 181 -198 0
-198 -182 199 0
-198 182 199 0
198 -182 -199 0
198 182 199 0
-199 -183 -200 0
-199 183 200 0
199 -183 200 0
199 183 200 0
-200 -184 201 0
-200 184 201 0
200 -184 201 0
200 184 -201 0
-201 -185 -202 0
-201 185 -202 0
201 -185 202 0
201 185 -202 0
-202 -186 203 0
-202 186 -203 0
202 -186 -203 0
202 186 203 0
-203 -187 204 0
-203 187 -204 0
203 -187 -204 0
203 187 -204 0
-188 205 0
188 -205 0
-205 -189 -1050 206 0
-205 -189 1050 -206 0
-205 189 -1051 206 0
-205 189 1051 -206 0
205 -189 -1052 206 0
205 -189 1052 -206 0
205 189 -1053 206 0
205 189 1053 -206 0
-206 -190 207 0
-206 190 207 0
206 -190 -207 0
206 190 207 0
-207 -191 208 0
-207 191 208 0
207 -191 208 0
207 191 -208 0
-208 -192 209 0
-208 192 209 0
208 -192 -209 0
208 192 209 0
-209 -193 -210 0
-209 193 210 0
209 -193 210 0
209 193 -210 0
-210 -194 211 0
-210 194 -211 0
210 -194 211 0
210 194 211 0
-211 -195 212 0
-211 195 212 0
211 -195 -212 0
211 195 212 0
-212 -196 213 0
-212 196 -213 0
212 -196 213 0
212 196 213 0
-213 -197 -214 0
-213 197 -214 0
213 -197 -214 0
213 197 214 0
-214 -198 -215 0
-214 198 -215 0
214 -198 215 0
214 198 -215 0
-215 -199 216 0
-215 199 -216 0
215 -199 -216 0
215 199 216 0
-216 -200 217 0
-216 200 -217 0
216 -200 -217 0
216 200 217 0
-217 -201 218 0
-217 201 -218 0
217 -201 218 0
217 201 218 0
-218 -202 219 0
-218 202 -219 0
218 -202 219 0
218 202 219 0
-219 -203 220 0
-219 203 220 0
219 -203 -220 0
219 203 220 0
-220 -204 -221 0
-220 204 221 0
220 -204 -221 0
220 204 -221 0
-205 222 0
205 -222 0
-222 -206 -223 0
-222 206 223 0
222 -206 -223 0
222 206 -223 0
-223 -207 224 0
-223 207 224 0
223 -207 -224 0
223 207 224 0
-224 -208 -225 0
-224 208 -225 0
224 -208 -225 0
224 208 225 0
-225 -209 226 0
-225 209 -226 0
225 -209 -226 0
225 209 -226 0
-226 -210 -227 0
-226 210 -227 0
226 -210 227 0
226 210 -227 0
-227 -211 -1136 228 0
-227 -211 1136 -228 0
-227 211 -1137 228 0
-227 211 1137 -228 0
227 -211 -1138 228 0
227 -211 1138 -228 0
227 211 -1139 228 0
227 211 1139 -228 0
-228 -212 229 0
-228 212 -229 0
228 -212 -229 0
228 212 229 0
-229 -213 230 0
-229 213 -230 0
229 -213 230 0
229 213 -230 0
-230 -214 231 0
-230 214 -231 0
230 -214 231 0
230 214 231 0
-231 -215 232 0
-231 215 232 0
231 -215 -232 0
231 215 232 0
-232 -216 -233 0
-232 216 233 0
232 -216 233 0
232 216 233 0
-233 -217 234 0
-233 217 234 0
233 -217 -234 0
233 217 -234 0
-234 -218 -235 0
-234 218 235 0
234 -218 235 0
234 218 235 0
-235 -219 -236 0
-235 219 -236 0
235 -219 236 0
235 219 236 0
-236 -220 -237 0
-236 220 237 0
236 -220 237 0
236 220 237 0
-237 -221 238 0
-237 221 -238 0
237 -221 238 0
237 221 -238 0
-222 239 0
222 -239 0
-239 -223 240 0
-239 223 -240 0
239 -223 240 0
239 223 240 0
-240 -224 -241 0
-240 224 -241 0
240 -224 241 0
240 224 -241 0
-241 -225 -242 0
-241 225 242 0
241 -225 242 0
241 225 242 0
-242 -226 -243 0
-242 226 -243 0
242 -226 243 0
242 226 243 0
-243 -227 -244 0
-243 227 -244 0
243 -227 244 0
243 227 244 0
-244 -228 245 0
-244 228 -245 0
244 -228 -245 0
244 228 245 0
-245 -229 -246 0
-245 229 246 0
245 -229 -246 0
245 229 246 0
-246 -230 247 0
-246 230 -247 0
246 -230 -247 0
246 230 247 0
-247 -231 248 0
-247 231 248 0
247 -231 248 0
247 231 -248 0
-248 -232 249 0
-248 232 -249 0
248 -232 -249 0
248 232 249 0
-249 -233 -250 0
-249 233 250 0
249 -233 -250 0
249 233 250 0
-250 -234 -251 0
-250 234 251 0
250 -234 251 0
250 234 -251 0
-251 -235 -252 0
-251 235 -252 0
251 -235 252 0
251 235 -252 0
-252 -236 -253 0
-252 236 -253 0
252 -236 253 0
252 236 -253 0
-253 -237 254 0
-253 237 254 0
253 -237 -254 0
253 237 254 0
-254 -238 255 0
-254 238 -255 0
254 -238 -255 0
254 238 255 0
-239 -1246 256 0
-239 1246 -256 0
239 -1247 256 0
239 1247 -256 0
-256 -240 -257 0
-256 240 257 0
256 -240 257 0
256 240 -257 0
-257 -241 -258 0
-257 241 -258 0
257 -241 258 0
257 241 258 0
-258 -242 -259 0
-258 242 259 0
258 -242 259 0
258 242 -259 0
-259 -243 260 0
-259 243 260 0
259 -243 -260 0
259 243 -260 0
-260 -244 261 0
-260 244 261 0
260 -244 -261 0
260 244 -261 0
-261 -245 262 0
-261 245 -262 0
261 -245 262 0
261 245 262 0
-262 -246 -1272 263 0
-262 -246 1272 -263 0
-262 246 -1273 263 0
-262 246 1273 -263 0
262 -246 -1274 263 0
262 -246 1274 -263 0
262 246 -1275 263 0
262 246 1275 -263 0
-263 -247 -264 0
-263 247 264 0
263 -247 -264 0
263 247 264 0
-264 -248 265 0
-264 248 265 0
264 -248 -265 0
264 248 265 0
-265 -249 -1284 266 0
-265 -249 1284 -266 0
-265 249 -1285 266 0
-265 249 1285 -266 0
265 -249 -1286 266 0
265 -249 1286 -266 0
265 249 -1287 266 0
265 249 1287 -266 0
-266 -250 -267 0
-266 250 267 0
266 -250 267 0
266 250 -267 0
-267 -251 -268 0
-267 251 268 0
267 -251 268 0
267 251 268 0
-268 -252 -1296 269 0
-268 -252 1296 -269 0
-268 252 -1297 269 0
-268 252 1297 -269 0
268 -252 -1298 269 0
268 -252 1298 -269 0
268 252 -1299 269 0
268 252 1299 -269 0
-269 -253 270 0
-269 253 -270 0
269 -253 -270 0
269 253 -270 0
-270 -254 271 0
-270 254 271 0
270 -254 -271 0
270 254 -271 0
-271 -255 272 0
-271 255 272 0
271 -255 272 0
271 255 -272 0
-256 -273 0
256 273 0
-273 -257 274 0
-273 257 274 0
273 -257 -274 0
273 257 -274 0
-274 -258 275 0
-274 258 275 0
274 -258 275 0
274 258 -275 0
-275 -259 -276 0
-275 259 -276 0
275 -259 -276 0
275 259 276 0
-276 -260 -277 0
-276 260 -277 0
276 -260 -277 0
276 260 277 0
-277 -261 -278 0
-277 261 278 0
277 -261 278 0
277 261 278 0
-278 -262 -279 0
-278 262 279 0
278 -262 -279 0
278 262 -279 0
-279 -263 280 0
-279 263 -280 0
279 -263 280 0
279 263 -280 0
-280 -264 -281 0
-280 264 281 0
280 -264 281 0
280 264 281 0
-281 -265 -1346 282 0
-281 -265 1346 -282 0
-281 265 -1347 282 0
-281 265 1347 -282 0
281 -265 -1348 282 0
281 -265 1348 -282 0
281 265 -1349 282 0
281 265 1349 -282 0
-282 -266 283 0
-282 266 -283 0
282 -266 283 0
282 266 -283 0
-283 -267 -284 0
-283 267 -284 0
283 -267 -284 0
283 267 284 0
-284 -268 285 0
-284 268 285 0
284 -268 -285 0
284 268 285 0
-285 -269 -1362 286 0
-285 -269 1362 -286 0
-285 269 -1363 286 0
-285 269 1363 -286 0
285 -269 -1364 286 0
285 -269 1364 -286 0
285 269 -1365 286 0
285 269 1365 -286 0
-286 -270 -287 0
-286 270 287 0
286 -270 -287 0
286 270 287 0
-287 -271 -288 0
-287 271 -288 0
287 -271 288 0
287 271 -288 0
-288 -272 -289 0
-288 272 -289 0
288 -272 289 0
288 272 289 0
289 0
