data/benchmarks/bayes/90-17-4-q.gr
p tw 1377 1148
36 53
214 230
67 68
247 264
99 100
263 1273
96 113
18 35
159 160
8 9
61 491
188 205
40 41
21 37
251 252
100 101
7 300
132 133
129 146
160 878
192 193
10 27
129 820
41 42
221 238
73 74
99 639
284 285
133 134
162 179
161 879
14 15
269 1297
225 226
43 60
74 75
254 271
72 532
106 107
103 120
126 741
166 167
15 16
46 498
195 212
47 48
226 227
258 259
31 378
107 108
189 1053
88 104
136 153
181 960
78 557
199 200
269 286
180 196
48 49
228 245
165 961
29 45
80 81
77 94
259 260
272 288
54 465
140 141
205 1052
121 137
106 664
169 186
256 1246
232 233
62 496
213 229
81 82
261 278
62 78
266 1287
110 127
173 174
243 260
286 1363
22 23
202 219
3 19
233 234
51 68
265 266
246 262
114 115
72 536
55 465
95 111
143 160
155 171
206 207
187 203
55 56
56 537
235 252
36 52
1 323
139 791
247 263
58 476
263 1272
266 267
96 112
147 148
128 144
207 208
132 770
61 490
239 240
220 236
268 285
71 531
54 460
129 145
161 177
160 877
133 771
10 26
240 241
221 237
15 379
99 638
116 709
253 269
102 118
25 42
181 182
77 619
162 178
269 1296
194 210
43 59
273 274
254 270
72 531
126 740
57 479
40 408
262 1275
135 151
214 215
17 34
46 497
100 706
156 857
195 211
227 243
76 92
109 126
189 1052
136 152
181 959
168 184
78 556
21 22
201 218
228 1138
50 67
165 960
228 244
260 276
77 93
113 114
265 1285
54 464
142 159
169 185
205 206
54 55
83 100
261 277
266 1286
110 126
146 147
98 637
286 1362
175 192
146 821
24 41
202 218
51 67
87 88
82 638
84 101
116 133
143 159
179 180
144 878
176 193
28 29
9 25
57 74
235 251
88 89
1 322
55 531
120 121
139 790
117 134
149 166
180 181
29 30
209 226
132 769
61 489
61 62
58 75
42 58
105 663
90 107
268 284
121 122
71 530
150 167
134 150
2 3
213 214
31 48
62 63
242 259
94 95
15 378
75 91
91 108
123 140
154 155
89 663
3 4
183 200
35 36
32 49
16 32
246 247
64 81
95 96
127 128
268 1299
38 465
108 124
57 478
40 407
94 616
124 141
262 1274
5 22
36 37
216 233
17 33
65 82
49 65
156 856
97 114
227 1136
128 129
279 280
109 125
160 161
157 174
6 23
220 221
201 217
69 70
249 266
228 1137
50 66
101 102
98 115
82 98
60 488
265 1284
282 1346
161 162
125 743
142 158
10 11
190 207
44 489
39 56
23 39
253 254
234 250
83 99
131 148
98 636
194 195
175 191
43 44
116 770
223 240
24 40
72 89
56 72
82 637
285 1365
267 283
135 136
286 287
116 132
164 181
144 877
176 192
227 228
208 224
76 77
256 273
57 73
100 709
281 1349
55 530
287 288
168 169
149 165
197 214
63 498
30 46
132 768
209 225
105 662
241 257
77 554
260 261
90 106
257 274
41 479
246 1275
150 166
61 555
182 198
53 462
31 47
261 262
242 258
37 463
123 139
89 662
183 199
231 248
215 231
64 80
145 819
249 1285
268 1298
38 464
124 140
156 172
9 10
5 21
38 55
216 232
264 281
248 264
97 113
130 147
157 173
189 205
42 43
268 269
71 88
18 323
249 265
134 135
163 180
12 29
190 206
44 488
75 76
255 272
104 121
131 147
16 17
206 1053
13 30
196 213
116 769
45 62
223 239
108 109
82 636
105 122
285 1364
137 154
182 961
164 180
94 619
138 793
49 50
229 246
46 63
269 1365
78 95
109 110
227 1139
281 1348
138 155
23 406
170 187
201 202
19 36
197 213
50 51
63 497
230 247
82 83
262 279
79 96
63 79
111 128
252 1299
142 143
41 478
246 1274
60 491
171 188
23 24
203 220
20 37
4 20
61 554
52 69
53 461
83 84
211 1136
234 235
115 116
263 280
112 129
73 537
144 161
37 462
175 176
24 25
204 221
56 57
236 253
53 70
37 53
267 268
85 102
116 117
145 818
249 1284
145 162
109 743
268 1297
177 194
155 859
208 209
26 43
57 58
167 168
237 254
38 54
89 90
39 409
70 86
93 618
86 103
118 135
149 150
130 146
32 379
178 195
30 31
210 227
27 44
11 27
241 242
90 91
200 201
270 287
71 87
18 322
119 136
139 859
151 168
182 183
163 179
31 32
141 142
211 228
12 28
60 77
44 60
274 275
255 271
123 124
265 1349
117 706
104 120
152 169
1 18
215 216
122 793
206 1052
196 212
64 65
174 175
116 768
45 61
244 261
93 110
285 1363
156 157
182 960
5 6
185 202
248 249
138 792
269 1364
229 245
97 98
78 94
126 143
281 1347
189 190
170 186
148 149
218 235
19 35
281 282
262 278
129 819
111 127
252 1298
222 223
203 219
161 878
263 279
144 160
122 123
37 461
252 269
236 252
85 101
31 377
177 193
155 858
26 42
59 76
237 253
269 285
93 617
118 134
32 378
23 409
205 1051
210 226
63 64
106 663
92 109
270 286
139 858
151 167
4 5
184 201
33 50
211 227
243 259
211 1139
125 142
265 1348
37 38
55 464
34 51
72 535
122 792
66 83
217 234
244 260
56 536
158 175
7 24
185 201
70 71
250 267
67 84
99 116
130 131
159 176
11 12
191 208
40 57
218 234
251 268
160 876
100 117
133 770
129 818
132 149
163 164
252 1297
62 499
99 637
116 708
192 209
44 45
224 241
41 58
25 41
73 90
77 618
161 877
133 150
165 182
117 709
196 197
14 31
72 530
155 156
225 242
74 91
288 289
106 123
46 496
137 138
247 248
96 97
166 183
18 19
198 215
31 376
15 32
58 479
47 64
189 1051
181 958
188 189
229 230
59 75
78 555
107 124
263 1275
258 275
139 156
280 281
165 959
129 130
199 216
54 463
48 65
205 1050
80 97
106 662
111 112
262 263
92 108
140 157
172 189
203 204
266 1285
184 200
162 163
232 249
33 49
81 98
146 820
144 145
254 255
269 1299
125 141
103 104
173 190
265 1347
84 100
22 39
236 237
72 534
126 743
122 791
195 196
217 233
66 82
265 282
114 131
56 535
177 178
158 174
206 223
7 23
117 133
55 72
269 270
250 266
118 119
228 229
99 115
77 78
61 488
147 164
58 74
210 211
191 207
169 170
239 256
40 56
54 467
6 301
133 769
151 152
132 148
110 111
15 377
99 636
91 107
116 707
243 244
224 240
202 203
73 89
77 617
286 1365
32 48
165 181
143 144
14 30
57 477
40 406
262 1273
235 236
106 122
65 81
198 214
139 793
189 1050
58 478
47 63
263 1274
6 22
78 554
139 155
228 1136
165 958
98 114
21 38
71 533
54 462
125 742
80 96
113 130
39 55
160 879
172 188
25 26
205 222
266 1284
54 71
146 819
146 163
72 88
269 1298
126 742
87 104
144 876
56 534
46 499
100 708
179 196
156 859
28 45
120 137
257 273
180 197
282 1349
61 78
265 1287
272 289
54 466
121 138
6 300
133 768
153 170
2 19
15 376
213 230
94 111
98 639
231 247
286 1364
84 85
154 171
217 218
35 52
176 177
246 263
57 476
262 1272
95 112
127 144
264 280
117 118
187 204
55 533
139 792
68 85
58 477
209 210
250 251
58 59
128 145
238 255
160 177
191 192
132 771
105 665
150 151
77 557
220 237
69 86
71 532
54 461
101 118
125 741
242 243
113 129
91 92
161 178
271 288
224 225
183 184
253 270
54 70
32 33
102 119
212 229
13 29
89 665
146 818
165 166
239 1247
146 162
124 125
194 211
275 276
105 121
38 467
216 217
40 409
65 66
94 618
87 103
46 62
135 152
245 262
198 199
276 277
100 707
179 195
157 158
156 858
227 1138
28 44
6 7
76 93
138 154
186 203
227 244
139 140
249 250
63 496
98 99
168 185
230 246
79 95
228 1139
282 1348
41 477
190 191
60 490
61 77
39 40
219 236
246 1273
20 36
265 1286
260 277
172 173
53 460
282 283
44 491
131 132
153 169
2 18
73 536
112 128
223 224
94 110
72 73
98 638
204 220
53 69
283 284
164 165
82 639
145 161
109 742
193 210
268 1296
256 257
127 143
144 879
39 408
9 26
197 198
55 532
68 84
178 194
27 43
257 258
238 254
160 176
119 135
105 664
42 59
77 556
125 740
101 117
134 151
60 76
61 557
271 287
152 168
75 92
231 232
206 1051
212 228
89 664
93 109
239 1246
16 33
285 1362
145 821
182 959
249 1287
38 39
38 466
108 125
94 617
138 791
245 261
264 265
269 1363
126 142
227 1137
49 66
281 1346
8 25
186 202
71 72
282 1347
12 13
41 476
60 489
82 99
246 1272
219 235
104 105
44 490
23 40
73 535
234 251
13 14
37 460
45 46
115 132
252 268
105 106
116 771
56 73
109 741
193 209
267 284
46 47
155 857
226 243
78 79
39 407
93 616
138 139
208 225
167 184
19 20
89 106
32 377
230 231
23 408
79 80
259 276
63 499
30 47
139 857
171 172
241 258
77 555
20 21
200 217
52 53
263 264
61 556
112 113
182 199
53 463
141 158
211 1138
53 54
233 250
34 50
206 1050
145 146
215 232
174 191
26 27
145 820
182 958
237 238
249 1286
86 87
156 173
138 790
67 83
266 283
269 1362
178 179
248 265
159 175
27 28
207 224
8 24
270 271
251 267
189 206
100 116
148 165
252 1296
62 498
211 212
192 208
60 61
240 257
41 57
271 272
161 876
152 153
222 239
133 149
1 2
181 198
73 534
117 708
212 213
244 245
115 131
93 94
225 241
55 467
74 90
122 139
185 186
166 182
214 231
109 740
15 31
245 246
155 856
226 242
277 278
258 274
126 127
107 123
39 406
186 187
167 183
218 219
89 105
32 376
199 215
23 407
48 64
7 301
278 279
259 275
140 156
139 856
129 821
63 80
219 220
200 216
232 248
81 97
4 21
141 157
211 1137
265 1346
173 189
22 38
252 253
72 533
122 790
233 249
265 281
114 130
37 54
193 194
174 190
206 222
59 60
31 379
55 71
285 286
88 105
266 282
181 961
147 163
93 619
70 87
29 46
207 223
92 93
205 1053
11 28
106 665
148 164
184 185
256 1247
33 34
62 497
116 706
62 79
240 256
125 126
77 616
44 61
3 20
181 197
117 707
66 67
72 537
55 466
122 138
158 159
155 172
7 8
